4
Lattice="4.171288531474727 0.0 2.554177574195294e-16 -2.554177574195294e-16 4.171288531474727 2.554177574195294e-16 0.0 0.0 4.171288531474727" Properties=species:S:1:pos:R:3 seed_name=Au mp_id=mp-81 e_above_hull=0.0 spacegroup=Fm-3m source="Materials Project mp-81" pbc="T T T"
Au       0.00000000       0.00000000       0.00000000
Au      -0.00000000       2.08564427       2.08564427
Au       2.08564427       0.00000000       2.08564427
Au       2.08564427       2.08564427       0.00000000
4
Lattice="3.577430671569751 0.0 2.1905445105547308e-16 -2.1905445105547308e-16 3.577430671569751 2.1905445105547308e-16 0.0 0.0 3.577430671569751" Properties=species:S:1:pos:R:3 seed_name=Cu mp_id=mp-30 e_above_hull=0.0 spacegroup=Fm-3m source="Materials Project mp-30" pbc="T T T"
Cu       0.00000000       0.00000000       0.00000000
Cu      -0.00000000       1.78871534       1.78871534
Cu       1.78871534       0.00000000       1.78871534
Cu       1.78871534       1.78871534       0.00000000
4
Lattice="3.73538756 0.0 2.287265209464421e-16 -2.287265209464421e-16 3.73538756 2.287265209464421e-16 0.0 0.0 3.73538756" Properties=species:S:1:pos:R:3 seed_name=Cu3Au mp_id=mp-2258 e_above_hull=0.0 spacegroup=Pm-3m source="Materials Project mp-2258" pbc="T T T"
Cu      -0.00000000       1.86769378       1.86769378
Cu       1.86769378       1.86769378       0.00000000
Cu       1.86769378       0.00000000       1.86769378
Au       0.00000000       0.00000000       0.00000000
2
Lattice="2.8507024025671286 0.0 1.7455517863127518e-16 -1.7455517863127518e-16 2.8507024025671286 1.7455517863127518e-16 0.0 0.0 3.58160886" Properties=species:S:1:pos:R:3 seed_name=CuAu mp_id=mp-522 e_above_hull=0.0 spacegroup=P4/mmm source="Materials Project mp-522" pbc="T T T"
Cu       1.42535120       1.42535120       1.79080443
Au       0.00000000       0.00000000       0.00000000
4
Lattice="4.01290166 0.0 2.45719358660605e-16 -2.45719358660605e-16 4.01290166 2.45719358660605e-16 0.0 0.0 4.01290166" Properties=species:S:1:pos:R:3 seed_name=CuAu3 mp_id=mp-2103 e_above_hull=0.0064 spacegroup=Pm-3m source="Materials Project mp-2103" pbc="T T T"
Cu       0.00000000       0.00000000       0.00000000
Au       2.00645083       2.00645083       0.00000000
Au       2.00645083       0.00000000       2.00645083
Au      -0.00000000       2.00645083       2.00645083
15
Lattice="1.4652050051561898 -2.5378095124347393 0.0 1.4652050051561898 2.5378095124347393 0.0 0.0 0.0 34.338656390578954" Properties=species:S:1:pos:R:3 seed_name=CuAu4 mp_id=mp-1225742 e_above_hull=0.0322 spacegroup=R-3m source="Materials Project mp-1225742" pbc="T T T"
Cu       0.00000000       0.00000000       0.00000000
Cu       1.46520501      -0.84593650      11.44621880
Cu       1.46520501       0.84593650      22.89243759
Au       1.46520501       0.84593650       2.07548562
Au       1.46520501      -0.84593650       4.51334709
Au       0.00000000       0.00000000       6.93287171
Au       1.46520501       0.84593650       9.37073317
Au       0.00000000       0.00000000      13.52170442
Au       1.46520501       0.84593650      15.95956588
Au       1.46520501      -0.84593650      18.37909051
Au       0.00000000       0.00000000      20.81695197
Au       1.46520501      -0.84593650      24.96792322
Au       0.00000000       0.00000000      27.40578468
Au       1.46520501       0.84593650      29.82530930
Au       1.46520501      -0.84593650      32.26317077
